(set-info :smt-lib-version 2.6)
(set-logic QF_LRA)
(set-info :source | TTA Startup. Bruno Dutertre (bruno@csl.sri.com) |)
(set-info :category "industrial")
(set-info :status unsat)
(declare-fun x_0 () Real)
(declare-fun x_1 () Real)
(declare-fun x_2 () Real)
(declare-fun x_3 () Real)
(declare-fun x_4 () Real)
(declare-fun x_5 () Real)
(declare-fun x_6 () Real)
(declare-fun x_7 () Real)
(declare-fun x_8 () Real)
(declare-fun x_9 () Real)
(declare-fun x_10 () Real)
(declare-fun x_11 () Real)
(declare-fun x_12 () Real)
(declare-fun x_13 () Bool)
(declare-fun x_14 () Bool)
(declare-fun x_15 () Bool)
(declare-fun x_16 () Bool)
(declare-fun x_17 () Bool)
(declare-fun x_18 () Bool)
(declare-fun x_19 () Real)
(declare-fun x_20 () Bool)
(declare-fun x_21 () Bool)
(declare-fun x_22 () Bool)
(declare-fun x_23 () Real)
(declare-fun x_24 () Real)
(declare-fun x_25 () Real)
(declare-fun x_26 () Real)
(declare-fun x_27 () Real)
(declare-fun x_28 () Real)
(declare-fun x_29 () Real)
(declare-fun x_30 () Real)
(declare-fun x_31 () Real)
(declare-fun x_32 () Real)
(declare-fun x_33 () Real)
(declare-fun x_34 () Real)
(declare-fun x_35 () Real)
(declare-fun x_36 () Real)
(declare-fun x_37 () Real)
(declare-fun x_38 () Real)
(declare-fun x_39 () Real)
(declare-fun x_40 () Real)
(declare-fun x_41 () Real)
(declare-fun x_42 () Real)
(declare-fun x_43 () Real)
(declare-fun x_44 () Real)
(declare-fun x_45 () Real)
(declare-fun x_46 () Real)
(declare-fun x_47 () Real)
(declare-fun x_48 () Real)
(declare-fun x_49 () Real)
(declare-fun x_50 () Real)
(declare-fun x_51 () Real)
(declare-fun x_52 () Real)
(declare-fun x_53 () Real)
(declare-fun x_54 () Real)
(declare-fun x_55 () Real)
(declare-fun x_56 () Real)
(declare-fun x_57 () Real)
(declare-fun x_58 () Real)
(declare-fun x_59 () Real)
(declare-fun x_60 () Real)
(declare-fun x_61 () Real)
(declare-fun x_62 () Bool)
(declare-fun x_63 () Real)
(declare-fun x_64 () Bool)
(declare-fun x_65 () Bool)
(declare-fun x_66 () Bool)
(declare-fun x_67 () Bool)
(declare-fun x_68 () Bool)
(declare-fun x_69 () Real)
(declare-fun x_70 () Real)
(declare-fun x_71 () Real)
(declare-fun x_72 () Real)
(declare-fun x_73 () Real)
(declare-fun x_74 () Real)
(declare-fun x_75 () Real)
(declare-fun x_76 () Real)
(declare-fun x_77 () Real)
(declare-fun x_78 () Real)
(declare-fun x_79 () Real)
(declare-fun x_80 () Real)
(declare-fun x_81 () Real)
(declare-fun x_82 () Real)
(assert (let ((?v_210 (= x_2 1)) (?v_230 (= x_3 1)) (?v_250 (= x_4 1)) (?v_270 (= x_5 1)) (?v_146 (= x_0 2)) (?v_191 (= x_1 2)) (?v_213 (= x_2 2)) (?v_233 (= x_3 2)) (?v_253 (= x_4 2)) (?v_273 (= x_5 2)) (?v_124 (= x_0 0)) (?v_141 (= x_0 1)) (?v_180 (= x_1 0)) (?v_187 (= x_1 1)) (?v_203 (= x_2 0)) (?v_223 (= x_3 0)) (?v_243 (= x_4 0)) (?v_263 (= x_5 0)) (?v_145 (= x_12 0)) (?v_164 (= x_0 3)) (?v_202 (= x_1 3)) (?v_222 (= x_2 3)) (?v_242 (= x_3 3)) (?v_262 (= x_4 3)) (?v_282 (= x_5 3)) (?v_103 (not x_13)) (?v_104 (not x_14)) (?v_105 (not x_15)) (?v_106 (not x_16)) (?v_107 (not x_17)) (?v_108 (not x_18)) (?v_1 (= x_19 6)) (?v_2 (= x_19 5)) (?v_3 (= x_19 4)) (?v_4 (= x_19 3)) (?v_5 (= x_19 2)) (?v_204 (= x_39 1))) (let ((?v_300 (not ?v_204)) (?v_224 (= x_40 1))) (let ((?v_301 (not ?v_224)) (?v_244 (= x_41 1))) (let ((?v_302 (not ?v_244)) (?v_264 (= x_42 1))) (let ((?v_303 (not ?v_264)) (?v_139 (= x_43 2))) (let ((?v_292 (not ?v_139)) (?v_184 (= x_44 2))) (let ((?v_293 (not ?v_184)) (?v_207 (= x_39 2))) (let ((?v_294 (not ?v_207)) (?v_227 (= x_40 2))) (let ((?v_295 (not ?v_227)) (?v_247 (= x_41 2))) (let ((?v_296 (not ?v_247)) (?v_267 (= x_42 2))) (let ((?v_297 (not ?v_267)) (?v_344 (not (< x_45 (+ x_46 36)))) (?v_346 (not (< x_47 (+ x_46 39)))) (?v_348 (not (< x_48 (+ x_46 42)))) (?v_350 (not (< x_49 (+ x_46 45)))) (?v_352 (not (< x_50 (+ x_46 48)))) (?v_354 (not (< x_51 (+ x_46 51)))) (?v_125 (= x_43 1)) (?v_181 (= x_44 1))) (let ((?v_298 (not ?v_125)) (?v_299 (not ?v_181)) (?v_337 (not (< (- x_45 x_46) 18))) (?v_313 (<= (- x_45 x_38) 18)) (?v_338 (not (< (- x_47 x_46) 21))) (?v_314 (<= (- x_47 x_38) 21)) (?v_339 (not (< (- x_48 x_46) 24))) (?v_315 (<= (- x_48 x_38) 24)) (?v_340 (not (< (- x_49 x_46) 27))) (?v_316 (<= (- x_49 x_38) 27)) (?v_341 (not (< (- x_50 x_46) 30))) (?v_317 (<= (- x_50 x_38) 30)) (?v_342 (not (< (- x_51 x_46) 33))) (?v_318 (<= (- x_51 x_38) 33)) (?v_34 (= x_53 x_54)) (?v_37 (= x_53 x_55)) (?v_40 (= x_53 x_56)) (?v_43 (= x_53 x_57)) (?v_46 (= x_53 x_58)) (?v_49 (= x_54 x_53)) (?v_53 (= x_54 x_55)) (?v_56 (= x_54 x_56)) (?v_59 (= x_54 x_57)) (?v_62 (= x_54 x_58)) (?v_64 (= x_55 x_53)) (?v_65 (= x_55 x_54)) (?v_66 (= x_55 x_56)) (?v_67 (= x_55 x_57)) (?v_68 (= x_55 x_58)) (?v_69 (= x_56 x_53)) (?v_70 (= x_56 x_54)) (?v_71 (= x_56 x_55)) (?v_72 (= x_56 x_57)) (?v_73 (= x_56 x_58)) (?v_74 (= x_57 x_53)) (?v_75 (= x_57 x_54)) (?v_76 (= x_57 x_55)) (?v_77 (= x_57 x_56)) (?v_78 (= x_57 x_58)) (?v_79 (= x_58 x_53)) (?v_80 (= x_58 x_54)) (?v_81 (= x_58 x_55)) (?v_82 (= x_58 x_56)) (?v_83 (= x_58 x_57)) (?v_32 (not (< x_38 x_45))) (?v_362 (= x_53 x_60)) (?v_48 (not (< x_38 x_47))) (?v_364 (= x_54 x_60)) (?v_52 (not (< x_38 x_48))) (?v_366 (= x_55 x_60)) (?v_55 (not (< x_38 x_49))) (?v_368 (= x_56 x_60)) (?v_58 (not (< x_38 x_50))) (?v_370 (= x_57 x_60)) (?v_61 (not (< x_38 x_51))) (?v_372 (= x_58 x_60)) (?v_23 (= x_43 3))) (let ((?v_30 (not ?v_23)) (?v_33 (not (= x_38 x_45))) (?v_24 (= x_44 3))) (let ((?v_31 (not ?v_24)) (?v_35 (not (= x_38 x_47))) (?v_26 (= x_39 3))) (let ((?v_36 (not ?v_26)) (?v_38 (not (= x_38 x_48))) (?v_27 (= x_40 3))) (let ((?v_39 (not ?v_27)) (?v_41 (not (= x_38 x_49))) (?v_28 (= x_41 3))) (let ((?v_42 (not ?v_28)) (?v_44 (not (= x_38 x_50))) (?v_29 (= x_42 3))) (let ((?v_45 (not ?v_29)) (?v_47 (not (= x_38 x_51))) (?v_319 (not (<= (- x_47 x_45) x_30))) (?v_320 (not (<= (- x_48 x_45) x_30))) (?v_321 (not (<= (- x_49 x_45) x_30))) (?v_322 (not (<= (- x_50 x_45) x_30))) (?v_323 (not (<= (- x_51 x_45) x_30))) (?v_324 (not (<= (- x_48 x_47) x_30))) (?v_325 (not (<= (- x_49 x_47) x_30))) (?v_326 (not (<= (- x_50 x_47) x_30))) (?v_327 (not (<= (- x_51 x_47) x_30))) (?v_328 (not (<= (- x_49 x_48) x_30))) (?v_329 (not (<= (- x_50 x_48) x_30))) (?v_330 (not (<= (- x_51 x_48) x_30))) (?v_331 (not (<= (- x_50 x_49) x_30))) (?v_332 (not (<= (- x_51 x_49) x_30))) (?v_333 (not (<= (- x_51 x_50) x_30))) (?v_343 (and x_62 (< x_63 x_45))) (?v_345 (and x_64 (< x_63 x_47))) (?v_347 (and x_65 (< x_63 x_48))) (?v_349 (and x_66 (< x_63 x_49))) (?v_351 (and x_67 (< x_63 x_50))) (?v_353 (and x_68 (< x_63 x_51))) (?v_156 (not x_62)) (?v_200 (not x_64)) (?v_220 (not x_65)) (?v_240 (not x_66)) (?v_260 (not x_67)) (?v_280 (not x_68)) (?v_84 (< x_53 1)) (?v_359 (or (or (or (or (or x_62 x_64) x_65) x_66) x_67) x_68)) (?v_12 (= x_60 6)) (?v_13 (= x_60 5)) (?v_14 (= x_60 4)) (?v_15 (= x_60 3)) (?v_16 (= x_60 2))) (let ((?v_360 (ite ?v_12 x_51 (ite ?v_13 x_50 (ite ?v_14 x_49 (ite ?v_15 x_48 (ite ?v_16 x_47 x_45)))))) (?v_17 (= x_53 6))) (let ((?v_373 (ite ?v_17 1 (+ x_53 1))) (?v_18 (= x_54 6))) (let ((?v_374 (ite ?v_18 1 (+ x_54 1))) (?v_19 (= x_55 6))) (let ((?v_375 (ite ?v_19 1 (+ x_55 1))) (?v_20 (= x_56 6))) (let ((?v_376 (ite ?v_20 1 (+ x_56 1))) (?v_21 (= x_57 6))) (let ((?v_377 (ite ?v_21 1 (+ x_57 1))) (?v_22 (= x_58 6))) (let ((?v_378 (ite ?v_22 1 (+ x_58 1))) (?v_149 (= x_12 1)) (?v_6 (= x_23 6))) (let ((?v_97 (ite ?v_6 1 (+ x_23 1))) (?v_7 (= x_24 6))) (let ((?v_98 (ite ?v_7 1 (+ x_24 1))) (?v_8 (= x_25 6))) (let ((?v_99 (ite ?v_8 1 (+ x_25 1))) (?v_9 (= x_26 6))) (let ((?v_100 (ite ?v_9 1 (+ x_26 1))) (?v_10 (= x_27 6))) (let ((?v_101 (ite ?v_10 1 (+ x_27 1))) (?v_11 (= x_28 6))) (let ((?v_102 (ite ?v_11 1 (+ x_28 1))) (?v_129 (= x_64 x_14)) (?v_130 (= x_65 x_15)) (?v_131 (= x_66 x_16)) (?v_132 (= x_67 x_17)) (?v_133 (= x_68 x_18)) (?v_134 (= x_60 x_19)) (?v_151 (= x_53 x_19)) (?v_195 (= x_54 x_19)) (?v_217 (= x_55 x_19)) (?v_118 (= x_38 x_6)) (?v_119 (= x_38 x_7)) (?v_237 (= x_56 x_19)) (?v_120 (= x_38 x_8)) (?v_121 (= x_38 x_9)) (?v_122 (= x_38 x_10)) (?v_123 (= x_38 x_11)) (?v_257 (= x_57 x_19)) (?v_277 (= x_58 x_19)) (?v_177 (= x_42 x_5)) (?v_178 (= x_58 x_28)) (?v_179 (= x_51 x_11)) (?v_136 (= x_43 x_0)) (?v_127 (= x_53 x_23)) (?v_137 (= x_45 x_6)) (?v_165 (= x_44 x_1)) (?v_166 (= x_54 x_24)) (?v_167 (= x_47 x_7)) (?v_168 (= x_39 x_2)) (?v_169 (= x_55 x_25)) (?v_170 (= x_48 x_8)) (?v_171 (= x_40 x_3)) (?v_172 (= x_56 x_26)) (?v_173 (= x_49 x_9)) (?v_174 (= x_41 x_4)) (?v_175 (= x_57 x_27)) (?v_176 (= x_50 x_10)) (?v_116 (and (and (and (and (and ?v_103 ?v_104) ?v_105) ?v_106) ?v_107) ?v_108)) (?v_140 (= x_62 false)) (?v_186 (= x_64 false)) (?v_209 (= x_65 false)) (?v_229 (= x_66 false)) (?v_249 (= x_67 false)) (?v_269 (= x_68 false)) (?v_0 (= x_19 1)) (?v_334 (not x_20)) (?v_304 (not x_21))) (let ((?v_357 (and ?v_334 ?v_304)) (?v_305 (not x_22))) (let ((?v_284 (and ?v_357 ?v_305)) (?v_385 (and x_20 ?v_304)) (?v_387 (or x_20 x_21)) (?v_388 (or ?v_334 x_21))) (let ((?v_389 (and (and (and (and (and (or ?v_387 x_22) (or ?v_388 x_22)) (or (or x_20 ?v_304) x_22)) (or (or ?v_334 ?v_304) x_22)) (or ?v_387 ?v_305)) (or ?v_388 ?v_305))) (?v_109 (> x_6 0)) (?v_110 (> x_7 0)) (?v_111 (> x_8 0)) (?v_112 (> x_9 0)) (?v_113 (> x_10 0)) (?v_114 (> x_11 0)) (?v_285 (and (and (and (and (and ?v_156 ?v_200) ?v_220) ?v_240) ?v_260) ?v_280)) (?v_361 (or ?v_30 ?v_32)) (?v_363 (or ?v_31 ?v_48)) (?v_365 (or ?v_36 ?v_52)) (?v_367 (or ?v_39 ?v_55)) (?v_369 (or ?v_42 ?v_58)) (?v_371 (or ?v_45 ?v_61)) (?v_86 (and ?v_298 ?v_292)) (?v_87 (and ?v_299 ?v_293)) (?v_89 (and ?v_300 ?v_294)) (?v_90 (and ?v_301 ?v_295)) (?v_91 (and ?v_302 ?v_296)) (?v_92 (and ?v_303 ?v_297)) (?v_25 (+ x_38 3)) (?v_50 (+ x_45 3)) (?v_51 (+ x_47 3)) (?v_54 (+ x_48 3)) (?v_57 (+ x_49 3)) (?v_60 (+ x_50 3)) (?v_63 (+ x_51 3)) (?v_85 (+ (+ x_45 (* (ite ?v_84 (- (- 1 x_53) 1) (- (+ (- 6 x_53) 1) 1)) 3)) x_30)) (?v_88 (+ (+ x_47 (* (ite (< x_54 2) (- (- 2 x_54) 1) (- (+ (- 6 x_54) 2) 1)) 3)) x_30)) (?v_93 (+ (+ x_48 (* (ite (< x_55 3) (- (- 3 x_55) 1) (- (+ (- 6 x_55) 3) 1)) 3)) x_30)) (?v_94 (+ (+ x_49 (* (ite (< x_56 4) (- (- 4 x_56) 1) (- (+ (- 6 x_56) 4) 1)) 3)) x_30)) (?v_95 (+ (+ x_50 (* (ite (< x_57 5) (- (- 5 x_57) 1) (- (+ (- 6 x_57) 5) 1)) 3)) x_30)) (?v_96 (+ (+ x_51 (* (ite (< x_58 6) (- x_59 1) (- (+ x_59 6) 1)) 3)) x_30))) (let ((?v_358 (and (and (and (and (and (and (and (and (and (and (and (and (and (and (and (and (and (and (and ?v_285 (or (or (or (or (or ?v_23 ?v_24) ?v_26) ?v_27) ?v_28) ?v_29)) (or ?v_30 (<= x_45 ?v_25))) (or ?v_31 (<= x_47 ?v_25))) (or ?v_36 (<= x_48 ?v_25))) (or ?v_39 (<= x_49 ?v_25))) (or ?v_42 (<= x_50 ?v_25))) (or ?v_45 (<= x_51 ?v_25))) (or ?v_30 (and (and (and (and (and (or (or ?v_361 ?v_33) (and (= x_53 x_69) (= x_45 ?v_50))) (or ?v_31 (and (and (or (or ?v_32 ?v_48) (and ?v_34 (= x_45 x_47))) (or (or ?v_33 ?v_35) ?v_34)) (or (or ?v_32 ?v_35) (and (= x_53 x_70) (= x_45 ?v_51)))))) (or ?v_36 (and (and (or (or ?v_32 ?v_52) (and ?v_37 (= x_45 x_48))) (or (or ?v_33 ?v_38) ?v_37)) (or (or ?v_32 ?v_38) (and (= x_53 x_71) (= x_45 ?v_54)))))) (or ?v_39 (and (and (or (or ?v_32 ?v_55) (and ?v_40 (= x_45 x_49))) (or (or ?v_33 ?v_41) ?v_40)) (or (or ?v_32 ?v_41) (and (= x_53 x_72) (= x_45 ?v_57)))))) (or ?v_42 (and (and (or (or ?v_32 ?v_58) (and ?v_43 (= x_45 x_50))) (or (or ?v_33 ?v_44) ?v_43)) (or (or ?v_32 ?v_44) (and (= x_53 x_73) (= x_45 ?v_60)))))) (or ?v_45 (and (and (or (or ?v_32 ?v_61) (and ?v_46 (= x_45 x_51))) (or (or ?v_33 ?v_47) ?v_46)) (or (or ?v_32 ?v_47) (and (= x_53 x_74) (= x_45 ?v_63)))))))) (or ?v_31 (and (and (and (and (and (or ?v_30 (and (and (or (or ?v_48 ?v_32) (and ?v_49 (= x_47 x_45))) (or (or ?v_35 ?v_33) ?v_49)) (or (or ?v_48 ?v_33) (and (= x_54 x_69) (= x_47 ?v_50))))) (or (or ?v_363 ?v_35) (and (= x_54 x_70) (= x_47 ?v_51)))) (or ?v_36 (and (and (or (or ?v_48 ?v_52) (and ?v_53 (= x_47 x_48))) (or (or ?v_35 ?v_38) ?v_53)) (or (or ?v_48 ?v_38) (and (= x_54 x_71) (= x_47 ?v_54)))))) (or ?v_39 (and (and (or (or ?v_48 ?v_55) (and ?v_56 (= x_47 x_49))) (or (or ?v_35 ?v_41) ?v_56)) (or (or ?v_48 ?v_41) (and (= x_54 x_72) (= x_47 ?v_57)))))) (or ?v_42 (and (and (or (or ?v_48 ?v_58) (and ?v_59 (= x_47 x_50))) (or (or ?v_35 ?v_44) ?v_59)) (or (or ?v_48 ?v_44) (and (= x_54 x_73) (= x_47 ?v_60)))))) (or ?v_45 (and (and (or (or ?v_48 ?v_61) (and ?v_62 (= x_47 x_51))) (or (or ?v_35 ?v_47) ?v_62)) (or (or ?v_48 ?v_47) (and (= x_54 x_74) (= x_47 ?v_63)))))))) (or ?v_36 (and (and (and (and (and (or ?v_30 (and (and (or (or ?v_52 ?v_32) (and ?v_64 (= x_48 x_45))) (or (or ?v_38 ?v_33) ?v_64)) (or (or ?v_52 ?v_33) (and (= x_55 x_69) (= x_48 ?v_50))))) (or ?v_31 (and (and (or (or ?v_52 ?v_48) (and ?v_65 (= x_48 x_47))) (or (or ?v_38 ?v_35) ?v_65)) (or (or ?v_52 ?v_35) (and (= x_55 x_70) (= x_48 ?v_51)))))) (or (or ?v_365 ?v_38) (and (= x_55 x_71) (= x_48 ?v_54)))) (or ?v_39 (and (and (or (or ?v_52 ?v_55) (and ?v_66 (= x_48 x_49))) (or (or ?v_38 ?v_41) ?v_66)) (or (or ?v_52 ?v_41) (and (= x_55 x_72) (= x_48 ?v_57)))))) (or ?v_42 (and (and (or (or ?v_52 ?v_58) (and ?v_67 (= x_48 x_50))) (or (or ?v_38 ?v_44) ?v_67)) (or (or ?v_52 ?v_44) (and (= x_55 x_73) (= x_48 ?v_60)))))) (or ?v_45 (and (and (or (or ?v_52 ?v_61) (and ?v_68 (= x_48 x_51))) (or (or ?v_38 ?v_47) ?v_68)) (or (or ?v_52 ?v_47) (and (= x_55 x_74) (= x_48 ?v_63)))))))) (or ?v_39 (and (and (and (and (and (or ?v_30 (and (and (or (or ?v_55 ?v_32) (and ?v_69 (= x_49 x_45))) (or (or ?v_41 ?v_33) ?v_69)) (or (or ?v_55 ?v_33) (and (= x_56 x_69) (= x_49 ?v_50))))) (or ?v_31 (and (and (or (or ?v_55 ?v_48) (and ?v_70 (= x_49 x_47))) (or (or ?v_41 ?v_35) ?v_70)) (or (or ?v_55 ?v_35) (and (= x_56 x_70) (= x_49 ?v_51)))))) (or ?v_36 (and (and (or (or ?v_55 ?v_52) (and ?v_71 (= x_49 x_48))) (or (or ?v_41 ?v_38) ?v_71)) (or (or ?v_55 ?v_38) (and (= x_56 x_71) (= x_49 ?v_54)))))) (or (or ?v_367 ?v_41) (and (= x_56 x_72) (= x_49 ?v_57)))) (or ?v_42 (and (and (or (or ?v_55 ?v_58) (and ?v_72 (= x_49 x_50))) (or (or ?v_41 ?v_44) ?v_72)) (or (or ?v_55 ?v_44) (and (= x_56 x_73) (= x_49 ?v_60)))))) (or ?v_45 (and (and (or (or ?v_55 ?v_61) (and ?v_73 (= x_49 x_51))) (or (or ?v_41 ?v_47) ?v_73)) (or (or ?v_55 ?v_47) (and (= x_56 x_74) (= x_49 ?v_63)))))))) (or ?v_42 (and (and (and (and (and (or ?v_30 (and (and (or (or ?v_58 ?v_32) (and ?v_74 (= x_50 x_45))) (or (or ?v_44 ?v_33) ?v_74)) (or (or ?v_58 ?v_33) (and (= x_57 x_69) (= x_50 ?v_50))))) (or ?v_31 (and (and (or (or ?v_58 ?v_48) (and ?v_75 (= x_50 x_47))) (or (or ?v_44 ?v_35) ?v_75)) (or (or ?v_58 ?v_35) (and (= x_57 x_70) (= x_50 ?v_51)))))) (or ?v_36 (and (and (or (or ?v_58 ?v_52) (and ?v_76 (= x_50 x_48))) (or (or ?v_44 ?v_38) ?v_76)) (or (or ?v_58 ?v_38) (and (= x_57 x_71) (= x_50 ?v_54)))))) (or ?v_39 (and (and (or (or ?v_58 ?v_55) (and ?v_77 (= x_50 x_49))) (or (or ?v_44 ?v_41) ?v_77)) (or (or ?v_58 ?v_41) (and (= x_57 x_72) (= x_50 ?v_57)))))) (or (or ?v_369 ?v_44) (and (= x_57 x_73) (= x_50 ?v_60)))) (or ?v_45 (and (and (or (or ?v_58 ?v_61) (and ?v_78 (= x_50 x_51))) (or (or ?v_44 ?v_47) ?v_78)) (or (or ?v_58 ?v_47) (and (= x_57 x_74) (= x_50 ?v_63)))))))) (or ?v_45 (and (and (and (and (and (or ?v_30 (and (and (or (or ?v_61 ?v_32) (and ?v_79 (= x_51 x_45))) (or (or ?v_47 ?v_33) ?v_79)) (or (or ?v_61 ?v_33) (and (= x_58 x_69) (= x_51 ?v_50))))) (or ?v_31 (and (and (or (or ?v_61 ?v_48) (and ?v_80 (= x_51 x_47))) (or (or ?v_47 ?v_35) ?v_80)) (or (or ?v_61 ?v_35) (and (= x_58 x_70) (= x_51 ?v_51)))))) (or ?v_36 (and (and (or (or ?v_61 ?v_52) (and ?v_81 (= x_51 x_48))) (or (or ?v_47 ?v_38) ?v_81)) (or (or ?v_61 ?v_38) (and (= x_58 x_71) (= x_51 ?v_54)))))) (or ?v_39 (and (and (or (or ?v_61 ?v_55) (and ?v_82 (= x_51 x_49))) (or (or ?v_47 ?v_41) ?v_82)) (or (or ?v_61 ?v_41) (and (= x_58 x_72) (= x_51 ?v_57)))))) (or ?v_42 (and (and (or (or ?v_61 ?v_58) (and ?v_83 (= x_51 x_50))) (or (or ?v_47 ?v_44) ?v_83)) (or (or ?v_61 ?v_44) (and (= x_58 x_73) (= x_51 ?v_60)))))) (or (or ?v_371 ?v_47) (and (= x_58 x_74) (= x_51 ?v_63)))))) (or ?v_30 (and (and (and (and (and (or ?v_86 (not (<= x_45 ?v_85))) (or ?v_87 (not (<= x_47 ?v_85)))) (or ?v_89 (not (<= x_48 ?v_85)))) (or ?v_90 (not (<= x_49 ?v_85)))) (or ?v_91 (not (<= x_50 ?v_85)))) (or ?v_92 (not (<= x_51 ?v_85)))))) (or ?v_31 (and (and (and (and (and (or ?v_86 (not (<= x_45 ?v_88))) (or ?v_87 (not (<= x_47 ?v_88)))) (or ?v_89 (not (<= x_48 ?v_88)))) (or ?v_90 (not (<= x_49 ?v_88)))) (or ?v_91 (not (<= x_50 ?v_88)))) (or ?v_92 (not (<= x_51 ?v_88)))))) (or ?v_36 (and (and (and (and (and (or ?v_86 (not (<= x_45 ?v_93))) (or ?v_87 (not (<= x_47 ?v_93)))) (or ?v_89 (not (<= x_48 ?v_93)))) (or ?v_90 (not (<= x_49 ?v_93)))) (or ?v_91 (not (<= x_50 ?v_93)))) (or ?v_92 (not (<= x_51 ?v_93)))))) (or ?v_39 (and (and (and (and (and (or ?v_86 (not (<= x_45 ?v_94))) (or ?v_87 (not (<= x_47 ?v_94)))) (or ?v_89 (not (<= x_48 ?v_94)))) (or ?v_90 (not (<= x_49 ?v_94)))) (or ?v_91 (not (<= x_50 ?v_94)))) (or ?v_92 (not (<= x_51 ?v_94)))))) (or ?v_42 (and (and (and (and (and (or ?v_86 (not (<= x_45 ?v_95))) (or ?v_87 (not (<= x_47 ?v_95)))) (or ?v_89 (not (<= x_48 ?v_95)))) (or ?v_90 (not (<= x_49 ?v_95)))) (or ?v_91 (not (<= x_50 ?v_95)))) (or ?v_92 (not (<= x_51 ?v_95)))))) (or ?v_45 (and (and (and (and (and (or ?v_86 (not (<= x_45 ?v_96))) (or ?v_87 (not (<= x_47 ?v_96)))) (or ?v_89 (not (<= x_48 ?v_96)))) (or ?v_90 (not (<= x_49 ?v_96)))) (or ?v_91 (not (<= x_50 ?v_96)))) (or ?v_92 (not (<= x_51 ?v_96))))))) (?v_115 (and (and (and (and (and ?v_109 ?v_110) ?v_111) ?v_112) ?v_113) ?v_114)) (?v_117 (and (and (and (and (and (<= x_38 x_6) (<= x_38 x_7)) (<= x_38 x_8)) (<= x_38 x_9)) (<= x_38 x_10)) (<= x_38 x_11))) (?v_283 (= x_38 0)) (?v_128 (and (= x_52 x_12) (= x_63 0)))) (let ((?v_182 (and ?v_128 (= x_62 x_13)))) (let ((?v_205 (and ?v_182 ?v_129))) (let ((?v_225 (and ?v_205 ?v_130))) (let ((?v_245 (and ?v_225 ?v_131))) (let ((?v_265 (and ?v_245 ?v_132)) (?v_135 (= x_46 0))) (let ((?v_126 (and (and (and ?v_265 ?v_133) ?v_134) ?v_135)) (?v_138 (= 0 x_6)) (?v_142 (= 0 0)) (?v_144 (and (and (and (and (and (and (and (and ?v_128 ?v_140) ?v_129) ?v_130) ?v_131) ?v_132) ?v_133) ?v_134) ?v_135)) (?v_143 (+ 0 18))) (let ((?v_147 (= x_45 ?v_143)) (?v_155 (= x_63 (ite ?v_116 (+ 0 x_30) 0)))) (let ((?v_185 (and (= x_52 (ite ?v_116 0 x_12)) ?v_155)) (?v_157 (= x_64 (or ?v_116 x_14))) (?v_158 (= x_65 (or ?v_116 x_15))) (?v_159 (= x_66 (or ?v_116 x_16))) (?v_160 (= x_67 (or ?v_116 x_17))) (?v_161 (= x_68 (or ?v_116 x_18))) (?v_162 (= x_60 (ite ?v_116 1 x_19))) (?v_163 (= x_46 (ite ?v_116 0 0)))) (let ((?v_148 (and (and (and (and (and (and (and (and ?v_185 ?v_140) ?v_157) ?v_158) ?v_159) ?v_160) ?v_161) ?v_162) ?v_163)) (?v_152 (+ 0 3))) (let ((?v_190 (- ?v_152 x_30))) (let ((?v_150 (= x_45 ?v_190)) (?v_153 (and ?v_164 ?v_138)) (?v_154 (= x_45 ?v_152)) (?v_198 (= x_52 (ite ?v_116 1 x_12))) (?v_183 (= 0 x_7)) (?v_189 (and (and (and (and (and (and (and ?v_182 ?v_186) ?v_130) ?v_131) ?v_132) ?v_133) ?v_134) ?v_135)) (?v_188 (+ 0 21))) (let ((?v_192 (= x_47 ?v_188)) (?v_199 (= x_62 (or ?v_116 x_13)))) (let ((?v_208 (and ?v_185 ?v_199)) (?v_201 (= x_60 (ite ?v_116 2 x_19)))) (let ((?v_193 (and (and (and (and (and (and (and ?v_208 ?v_186) ?v_158) ?v_159) ?v_160) ?v_161) ?v_201) ?v_163)) (?v_194 (= x_47 ?v_190)) (?v_196 (and ?v_202 ?v_183)) (?v_197 (= x_47 ?v_152)) (?v_206 (= 0 x_8)) (?v_212 (and (and (and (and (and (and ?v_205 ?v_209) ?v_131) ?v_132) ?v_133) ?v_134) ?v_135)) (?v_211 (+ 0 24))) (let ((?v_214 (= x_48 ?v_211)) (?v_228 (and ?v_208 ?v_157)) (?v_221 (= x_60 (ite ?v_116 3 x_19)))) (let ((?v_215 (and (and (and (and (and (and ?v_228 ?v_209) ?v_159) ?v_160) ?v_161) ?v_221) ?v_163)) (?v_216 (= x_48 ?v_190)) (?v_218 (and ?v_222 ?v_206)) (?v_219 (= x_48 ?v_152)) (?v_226 (= 0 x_9)) (?v_232 (and (and (and (and (and ?v_225 ?v_229) ?v_132) ?v_133) ?v_134) ?v_135)) (?v_231 (+ 0 27))) (let ((?v_234 (= x_49 ?v_231)) (?v_248 (and ?v_228 ?v_158)) (?v_241 (= x_60 (ite ?v_116 4 x_19)))) (let ((?v_235 (and (and (and (and (and ?v_248 ?v_229) ?v_160) ?v_161) ?v_241) ?v_163)) (?v_236 (= x_49 ?v_190)) (?v_238 (and ?v_242 ?v_226)) (?v_239 (= x_49 ?v_152)) (?v_246 (= 0 x_10)) (?v_252 (and (and (and (and ?v_245 ?v_249) ?v_133) ?v_134) ?v_135)) (?v_251 (+ 0 30))) (let ((?v_254 (= x_50 ?v_251)) (?v_268 (and ?v_248 ?v_159)) (?v_261 (= x_60 (ite ?v_116 5 x_19)))) (let ((?v_255 (and (and (and (and ?v_268 ?v_249) ?v_161) ?v_261) ?v_163)) (?v_256 (= x_50 ?v_190)) (?v_258 (and ?v_262 ?v_246)) (?v_259 (= x_50 ?v_152)) (?v_266 (= 0 x_11)) (?v_272 (and (and (and ?v_265 ?v_269) ?v_134) ?v_135)) (?v_271 (+ 0 33))) (let ((?v_274 (= x_51 ?v_271)) (?v_281 (= x_60 (ite ?v_116 6 x_19)))) (let ((?v_275 (and (and (and (and ?v_268 ?v_160) ?v_269) ?v_281) ?v_163)) (?v_276 (= x_51 ?v_190)) (?v_278 (and ?v_282 ?v_266)) (?v_279 (= x_51 ?v_152)) (?v_286 (or (= x_43 0) ?v_125)) (?v_287 (or (= x_44 0) ?v_181)) (?v_288 (or (= x_39 0) ?v_204)) (?v_289 (or (= x_40 0) ?v_224)) (?v_290 (or (= x_41 0) ?v_244)) (?v_291 (or (= x_42 0) ?v_264)) (?v_336 (and (and ?v_359 (= x_52 0)) (= x_61 2)))) (let ((?v_307 (or ?v_286 ?v_139)) (?v_308 (or ?v_287 ?v_184)) (?v_309 (or ?v_288 ?v_207)) (?v_310 (or ?v_289 ?v_227)) (?v_311 (or ?v_290 ?v_247)) (?v_312 (or ?v_291 ?v_267))) (let ((?v_306 (and (and (and (and (and (and (and (and (and (and (and (and (and (and (and (and (and (and ?v_336 ?v_307) ?v_308) ?v_309) ?v_310) ?v_311) ?v_312) (or ?v_292 (and (and ?v_156 ?v_337) ?v_313))) (or ?v_293 (and (and ?v_200 ?v_338) ?v_314))) (or ?v_294 (and (and ?v_220 ?v_339) ?v_315))) (or ?v_295 (and (and ?v_240 ?v_340) ?v_316))) (or ?v_296 (and (and ?v_260 ?v_341) ?v_317))) (or ?v_297 (and (and ?v_280 ?v_342) ?v_318))) (or (or ?v_298 x_62) ?v_344)) (or (or ?v_299 x_64) ?v_346)) (or (or ?v_300 x_65) ?v_348)) (or (or ?v_301 x_66) ?v_350)) (or (or ?v_302 x_67) ?v_352)) (or (or ?v_303 x_68) ?v_354))) (?v_335 (and (and (and (and (and (and (and (and (and (and (and (and (and (and (and (and (and (and (and (and (and (and (and (and ?v_285 (or (or (or (or (or ?v_139 ?v_184) ?v_207) ?v_227) ?v_247) ?v_267)) ?v_307) ?v_308) ?v_309) ?v_310) ?v_311) ?v_312) (or ?v_292 ?v_313)) (or ?v_293 ?v_314)) (or ?v_294 ?v_315)) (or ?v_295 ?v_316)) (or ?v_296 ?v_317)) (or ?v_297 ?v_318)) (or ?v_292 (and (and (and (and (or ?v_293 ?v_319) (or ?v_294 ?v_320)) (or ?v_295 ?v_321)) (or ?v_296 ?v_322)) (or ?v_297 ?v_323)))) (or ?v_293 (and (and (and (or ?v_294 ?v_324) (or ?v_295 ?v_325)) (or ?v_296 ?v_326)) (or ?v_297 ?v_327)))) (or ?v_294 (and (and (or ?v_295 ?v_328) (or ?v_296 ?v_329)) (or ?v_297 ?v_330)))) (or ?v_295 (and (or ?v_296 ?v_331) (or ?v_297 ?v_332)))) (or (or ?v_296 ?v_297) ?v_333)) (or ?v_292 (and (and (and (and (and (or ?v_298 (not (<= (- x_45 x_45) x_30))) (or ?v_299 ?v_319)) (or ?v_300 ?v_320)) (or ?v_301 ?v_321)) (or ?v_302 ?v_322)) (or ?v_303 ?v_323)))) (or ?v_293 (and (and (and (and (and (or ?v_298 (not (<= (- x_45 x_47) x_30))) (or ?v_299 (not (<= (- x_47 x_47) x_30)))) (or ?v_300 ?v_324)) (or ?v_301 ?v_325)) (or ?v_302 ?v_326)) (or ?v_303 ?v_327)))) (or ?v_294 (and (and (and (and (and (or ?v_298 (not (<= (- x_45 x_48) x_30))) (or ?v_299 (not (<= (- x_47 x_48) x_30)))) (or ?v_300 (not (<= (- x_48 x_48) x_30)))) (or ?v_301 ?v_328)) (or ?v_302 ?v_329)) (or ?v_303 ?v_330)))) (or ?v_295 (and (and (and (and (and (or ?v_298 (not (<= (- x_45 x_49) x_30))) (or ?v_299 (not (<= (- x_47 x_49) x_30)))) (or ?v_300 (not (<= (- x_48 x_49) x_30)))) (or ?v_301 (not (<= (- x_49 x_49) x_30)))) (or ?v_302 ?v_331)) (or ?v_303 ?v_332)))) (or ?v_296 (and (and (and (and (and (or ?v_298 (not (<= (- x_45 x_50) x_30))) (or ?v_299 (not (<= (- x_47 x_50) x_30)))) (or ?v_300 (not (<= (- x_48 x_50) x_30)))) (or ?v_301 (not (<= (- x_49 x_50) x_30)))) (or ?v_302 (not (<= (- x_50 x_50) x_30)))) (or ?v_303 ?v_333)))) (or ?v_297 (and (and (and (and (and (or ?v_298 (not (<= (- x_45 x_51) x_30))) (or ?v_299 (not (<= (- x_47 x_51) x_30)))) (or ?v_300 (not (<= (- x_48 x_51) x_30)))) (or ?v_301 (not (<= (- x_49 x_51) x_30)))) (or ?v_302 (not (<= (- x_50 x_51) x_30)))) (or ?v_303 (not (<= (- x_51 x_51) x_30))))))) (?v_379 (or (or ?v_298 ?v_343) ?v_344)) (?v_380 (or (or ?v_299 ?v_345) ?v_346)) (?v_381 (or (or ?v_300 ?v_347) ?v_348)) (?v_382 (or (or ?v_301 ?v_349) ?v_350)) (?v_383 (or (or ?v_302 ?v_351) ?v_352)) (?v_384 (or (or ?v_303 ?v_353) ?v_354)) (?v_355 (+ x_46 3))) (let ((?v_356 (and (and (and (and (and (and (and (and (and (and (and (and (and (and (and (and (and (and (and (and ?v_336 (= ?v_360 (+ (+ x_46 (* (- x_60 1) 3)) 18))) (not (ite ?v_12 x_68 (ite ?v_13 x_67 (ite ?v_14 x_66 (ite ?v_15 x_65 (ite ?v_16 x_64 x_62))))))) (or (or (or ?v_292 (= 1 x_60)) ?v_343) (and ?v_337 ?v_313))) (or (or (or ?v_293 (= 2 x_60)) ?v_345) (and ?v_338 ?v_314))) (or (or (or ?v_294 (= 3 x_60)) ?v_347) (and ?v_339 ?v_315))) (or (or (or ?v_295 (= 4 x_60)) ?v_349) (and ?v_340 ?v_316))) (or (or (or ?v_296 (= 5 x_60)) ?v_351) (and ?v_341 ?v_317))) (or (or (or ?v_297 (= 6 x_60)) ?v_353) (and ?v_342 ?v_318))) ?v_379) ?v_380) ?v_381) ?v_382) ?v_383) ?v_384) (or ?v_30 (and ?v_362 (= x_45 ?v_355)))) (or ?v_31 (and ?v_364 (= x_47 ?v_355)))) (or ?v_36 (and ?v_366 (= x_48 ?v_355)))) (or ?v_39 (and ?v_368 (= x_49 ?v_355)))) (or ?v_42 (and ?v_370 (= x_50 ?v_355)))) (or ?v_45 (and ?v_372 (= x_51 ?v_355))))) (?v_386 (and (and (and (and (and (and (and (and (and (and (and (and (and (and (and (and (and (and (and (and (and (and (and (and (and (and (and (and ?v_359 (= x_52 1)) (= x_61 3)) (= (ite ?v_12 x_58 (ite ?v_13 x_57 (ite ?v_14 x_56 (ite ?v_15 x_55 (ite ?v_16 x_54 x_53))))) x_60)) (= ?v_360 ?v_355)) (or ?v_361 (and ?v_362 (= x_45 ?v_360)))) (or ?v_363 (and ?v_364 (= x_47 ?v_360)))) (or ?v_365 (and ?v_366 (= x_48 ?v_360)))) (or ?v_367 (and ?v_368 (= x_49 ?v_360)))) (or ?v_369 (and ?v_370 (= x_50 ?v_360)))) (or ?v_371 (and ?v_372 (= x_51 ?v_360)))) (or (or ?v_30 ?v_33) (and (= ?v_373 x_60) (= ?v_360 ?v_50)))) (or (or ?v_31 ?v_35) (and (= ?v_374 x_60) (= ?v_360 ?v_51)))) (or (or ?v_36 ?v_38) (and (= ?v_375 x_60) (= ?v_360 ?v_54)))) (or (or ?v_39 ?v_41) (and (= ?v_376 x_60) (= ?v_360 ?v_57)))) (or (or ?v_42 ?v_44) (and (= ?v_377 x_60) (= ?v_360 ?v_60)))) (or (or ?v_45 ?v_47) (and (= ?v_378 x_60) (= ?v_360 ?v_63)))) ?v_379) ?v_380) ?v_381) ?v_382) ?v_383) ?v_384) (or ?v_292 ?v_343)) (or ?v_293 ?v_345)) (or ?v_294 ?v_347)) (or ?v_295 ?v_349)) (or ?v_296 ?v_351)) (or ?v_297 ?v_353)))) (and (and (and (and (and (and (and (and (and (and (and (and (and (and (and (and (and (and (and (and (and (and (and (and (and (and (and (and (and (and (and (and (and (and (and (and (and (and (and (and (and (and (and (and (and (and (and (and (and (and (and (and (and (and (and (and (and (and (and (and (and (and (and (and (and (and (and (and (and (and (and (and (and (and (and (and (and (and (and (and (and (and (and (and (and (and (and (and (and (and (and (and (and (and (and (and (and (and (and (and (and (and (and (and (and (and (and (and (and (and (and (and (and (and (and (and (and (and (and (and (and (and (and (and (and (and (and (and (and (and (and (and (and (<= x_82 6) (>= x_82 0)) (<= x_75 6)) (>= x_75 0)) (<= x_61 3)) (>= x_61 0)) (<= x_52 1)) (>= x_52 0)) (<= x_44 3)) (>= x_44 0)) (<= x_43 3)) (>= x_43 0)) (<= x_42 3)) (>= x_42 0)) (<= x_41 3)) (>= x_41 0)) (<= x_40 3)) (>= x_40 0)) (<= x_39 3)) (>= x_39 0)) (<= x_31 3)) (>= x_31 0)) (<= x_12 1)) (>= x_12 0)) (<= x_5 3)) (>= x_5 0)) (<= x_4 3)) (>= x_4 0)) (<= x_3 3)) (>= x_3 0)) (<= x_2 3)) (>= x_2 0)) (<= x_1 3)) (>= x_1 0)) (<= x_0 3)) (>= x_0 0)) (or (or (or (or (or ?v_0 ?v_5) ?v_4) ?v_3) ?v_2) ?v_1)) (not (< x_19 1))) (<= x_19 6)) (or (or (or (or (or (= x_23 1) (= x_23 2)) (= x_23 3)) (= x_23 4)) (= x_23 5)) ?v_6)) (not (< x_23 1))) (<= x_23 6)) (or (or (or (or (or (= x_24 1) (= x_24 2)) (= x_24 3)) (= x_24 4)) (= x_24 5)) ?v_7)) (not (< x_24 1))) (<= x_24 6)) (or (or (or (or (or (= x_25 1) (= x_25 2)) (= x_25 3)) (= x_25 4)) (= x_25 5)) ?v_8)) (not (< x_25 1))) (<= x_25 6)) (or (or (or (or (or (= x_26 1) (= x_26 2)) (= x_26 3)) (= x_26 4)) (= x_26 5)) ?v_9)) (not (< x_26 1))) (<= x_26 6)) (or (or (or (or (or (= x_27 1) (= x_27 2)) (= x_27 3)) (= x_27 4)) (= x_27 5)) ?v_10)) (not (< x_27 1))) (<= x_27 6)) (or (or (or (or (or (= x_28 1) (= x_28 2)) (= x_28 3)) (= x_28 4)) (= x_28 5)) ?v_11)) (not (< x_28 1))) (<= x_28 6)) (> x_30 0)) (< x_30 (/ 3 2))) (or (or (or (or (or (= x_53 1) (= x_53 2)) (= x_53 3)) (= x_53 4)) (= x_53 5)) ?v_17)) (not ?v_84)) (<= x_53 6)) (or (or (or (or (or (= x_54 1) (= x_54 2)) (= x_54 3)) (= x_54 4)) (= x_54 5)) ?v_18)) (not (< x_54 1))) (<= x_54 6)) (or (or (or (or (or (= x_55 1) (= x_55 2)) (= x_55 3)) (= x_55 4)) (= x_55 5)) ?v_19)) (not (< x_55 1))) (<= x_55 6)) (or (or (or (or (or (= x_56 1) (= x_56 2)) (= x_56 3)) (= x_56 4)) (= x_56 5)) ?v_20)) (not (< x_56 1))) (<= x_56 6)) (or (or (or (or (or (= x_57 1) (= x_57 2)) (= x_57 3)) (= x_57 4)) (= x_57 5)) ?v_21)) (not (< x_57 1))) (<= x_57 6)) (or (or (or (or (or (= x_58 1) (= x_58 2)) (= x_58 3)) (= x_58 4)) (= x_58 5)) ?v_22)) (not (< x_58 1))) (<= x_58 6)) (or (or (or (or (or (= x_60 1) ?v_16) ?v_15) ?v_14) ?v_13) ?v_12)) (not (< x_60 1))) (<= x_60 6)) ?v_124) ?v_180) ?v_203) ?v_223) ?v_243) ?v_263) ?v_109) (< x_6 30)) ?v_110) (< x_7 30)) ?v_111) (< x_8 30)) ?v_112) (< x_9 30)) ?v_113) (< x_10 30)) ?v_114) (< x_11 30)) ?v_149) ?v_103) ?v_104) ?v_105) ?v_106) ?v_107) ?v_108) ?v_0) ?v_284) (= x_29 (- 6 x_28))) (= x_31 (ite ?v_1 x_5 (ite ?v_2 x_4 (ite ?v_3 x_3 (ite ?v_4 x_2 (ite ?v_5 x_1 x_0))))))) (= x_32 ?v_97)) (= x_33 ?v_98)) (= x_34 ?v_99)) (= x_35 ?v_100)) (= x_36 ?v_101)) (= x_37 ?v_102)) (= x_59 (- 6 x_58))) (= x_61 (ite ?v_12 x_42 (ite ?v_13 x_41 (ite ?v_14 x_40 (ite ?v_15 x_39 (ite ?v_16 x_44 x_43))))))) (= x_69 ?v_373)) (= x_70 ?v_374)) (= x_71 ?v_375)) (= x_72 ?v_376)) (= x_73 ?v_377)) (= x_74 ?v_378)) (= x_75 (ite ?v_358 4 6))) (= x_76 ?v_97)) (= x_77 ?v_98)) (= x_78 ?v_99)) (= x_79 ?v_100)) (= x_80 ?v_101)) (= x_81 ?v_102)) (or (and (and (and (and (and (and (and (and (and (and (and (and (and (and (and (and (and (and (and (and (ite ?v_116 ?v_115 (and ?v_115 (> 0 0))) (ite ?v_116 (and ?v_117 (or (or (or (or (or ?v_118 ?v_119) ?v_120) ?v_121) ?v_122) ?v_123)) (and (and ?v_117 (<= x_38 0)) (or (or (or (or (or (or ?v_283 ?v_118) ?v_119) ?v_120) ?v_121) ?v_122) ?v_123)))) ?v_136) ?v_165) ?v_168) ?v_171) ?v_174) ?v_177) ?v_127) ?v_166) ?v_169) ?v_172) ?v_175) ?v_178) ?v_137) ?v_167) ?v_170) ?v_173) ?v_176) ?v_179) ?v_126) (and (or (or (or (or (or (and (and (and (and (and (and (and (and (and (and (and (and (and (and (and (or (or (or (or (or (or (or (or (or (and (and (and (and (and ?v_124 ?v_138) ?v_125) (= x_45 (+ 0 36))) ?v_126) ?v_127) (and (and (and (and (and (and ?v_124 x_13) ?v_142) ?v_144) ?v_136) ?v_127) ?v_137)) (and (and (and (and (and ?v_141 ?v_138) ?v_139) ?v_147) ?v_148) ?v_127)) (and (and (and (and (and (and (and ?v_141 x_13) ?v_145) ?v_142) ?v_139) (= x_45 (- ?v_143 x_30))) ?v_144) ?v_127)) (and (and (and (and (and (and (and ?v_146 x_13) ?v_145) ?v_142) ?v_23) ?v_150) ?v_151) ?v_144)) (and (and (and (and (and ?v_146 ?v_138) ?v_147) ?v_148) ?v_136) ?v_127)) (and (and (and (and (and (and (and (or ?v_141 ?v_146) x_13) ?v_149) ?v_142) ?v_23) ?v_150) ?v_151) ?v_144)) (and (and (and (and (and ?v_153 (not (= ?v_97 1))) ?v_154) (= x_53 x_76)) ?v_126) ?v_136)) (and (and (and (and (and (and (and (and (and (and (and (and (and (and ?v_153 (= x_76 1)) ?v_154) (= x_53 ?v_97)) ?v_198) ?v_155) ?v_156) ?v_157) ?v_158) ?v_159) ?v_160) ?v_161) ?v_162) ?v_163) ?v_136)) (and (and (and (and (and (and (and ?v_164 x_13) ?v_149) ?v_142) ?v_144) ?v_136) ?v_127) ?v_137)) ?v_165) ?v_166) ?v_167) ?v_168) ?v_169) ?v_170) ?v_171) ?v_172) ?v_173) ?v_174) ?v_175) ?v_176) ?v_177) ?v_178) ?v_179) (and (and (and (and (and (and (and (and (and (and (and (and (and (and (and (or (or (or (or (or (or (or (or (or (and (and (and (and (and ?v_180 ?v_183) ?v_181) (= x_47 (+ 0 39))) ?v_126) ?v_166) (and (and (and (and (and (and ?v_180 x_14) ?v_142) ?v_189) ?v_165) ?v_166) ?v_167)) (and (and (and (and (and ?v_187 ?v_183) ?v_184) ?v_192) ?v_193) ?v_166)) (and (and (and (and (and (and (and ?v_187 x_14) ?v_145) ?v_142) ?v_184) (= x_47 (- ?v_188 x_30))) ?v_189) ?v_166)) (and (and (and (and (and (and (and ?v_191 x_14) ?v_145) ?v_142) ?v_24) ?v_194) ?v_195) ?v_189)) (and (and (and (and (and ?v_191 ?v_183) ?v_192) ?v_193) ?v_165) ?v_166)) (and (and (and (and (and (and (and (or ?v_187 ?v_191) x_14) ?v_149) ?v_142) ?v_24) ?v_194) ?v_195) ?v_189)) (and (and (and (and (and ?v_196 (not (= ?v_98 2))) ?v_197) (= x_54 x_77)) ?v_126) ?v_165)) (and (and (and (and (and (and (and (and (and (and (and (and (and (and ?v_196 (= x_77 2)) ?v_197) (= x_54 ?v_98)) ?v_198) ?v_155) ?v_199) ?v_200) ?v_158) ?v_159) ?v_160) ?v_161) ?v_201) ?v_163) ?v_165)) (and (and (and (and (and (and (and ?v_202 x_14) ?v_149) ?v_142) ?v_189) ?v_165) ?v_166) ?v_167)) ?v_136) ?v_127) ?v_137) ?v_168) ?v_169) ?v_170) ?v_171) ?v_172) ?v_173) ?v_174) ?v_175) ?v_176) ?v_177) ?v_178) ?v_179)) (and (and (and (and (and (and (and (and (and (and (and (and (and (and (and (or (or (or (or (or (or (or (or (or (and (and (and (and (and ?v_203 ?v_206) ?v_204) (= x_48 (+ 0 42))) ?v_126) ?v_169) (and (and (and (and (and (and ?v_203 x_15) ?v_142) ?v_212) ?v_168) ?v_169) ?v_170)) (and (and (and (and (and ?v_210 ?v_206) ?v_207) ?v_214) ?v_215) ?v_169)) (and (and (and (and (and (and (and ?v_210 x_15) ?v_145) ?v_142) ?v_207) (= x_48 (- ?v_211 x_30))) ?v_212) ?v_169)) (and (and (and (and (and (and (and ?v_213 x_15) ?v_145) ?v_142) ?v_26) ?v_216) ?v_217) ?v_212)) (and (and (and (and (and ?v_213 ?v_206) ?v_214) ?v_215) ?v_168) ?v_169)) (and (and (and (and (and (and (and (or ?v_210 ?v_213) x_15) ?v_149) ?v_142) ?v_26) ?v_216) ?v_217) ?v_212)) (and (and (and (and (and ?v_218 (not (= ?v_99 3))) ?v_219) (= x_55 x_78)) ?v_126) ?v_168)) (and (and (and (and (and (and (and (and (and (and (and (and (and (and ?v_218 (= x_78 3)) ?v_219) (= x_55 ?v_99)) ?v_198) ?v_155) ?v_199) ?v_157) ?v_220) ?v_159) ?v_160) ?v_161) ?v_221) ?v_163) ?v_168)) (and (and (and (and (and (and (and ?v_222 x_15) ?v_149) ?v_142) ?v_212) ?v_168) ?v_169) ?v_170)) ?v_136) ?v_127) ?v_137) ?v_165) ?v_166) ?v_167) ?v_171) ?v_172) ?v_173) ?v_174) ?v_175) ?v_176) ?v_177) ?v_178) ?v_179)) (and (and (and (and (and (and (and (and (and (and (and (and (and (and (and (or (or (or (or (or (or (or (or (or (and (and (and (and (and ?v_223 ?v_226) ?v_224) (= x_49 (+ 0 45))) ?v_126) ?v_172) (and (and (and (and (and (and ?v_223 x_16) ?v_142) ?v_232) ?v_171) ?v_172) ?v_173)) (and (and (and (and (and ?v_230 ?v_226) ?v_227) ?v_234) ?v_235) ?v_172)) (and (and (and (and (and (and (and ?v_230 x_16) ?v_145) ?v_142) ?v_227) (= x_49 (- ?v_231 x_30))) ?v_232) ?v_172)) (and (and (and (and (and (and (and ?v_233 x_16) ?v_145) ?v_142) ?v_27) ?v_236) ?v_237) ?v_232)) (and (and (and (and (and ?v_233 ?v_226) ?v_234) ?v_235) ?v_171) ?v_172)) (and (and (and (and (and (and (and (or ?v_230 ?v_233) x_16) ?v_149) ?v_142) ?v_27) ?v_236) ?v_237) ?v_232)) (and (and (and (and (and ?v_238 (not (= ?v_100 4))) ?v_239) (= x_56 x_79)) ?v_126) ?v_171)) (and (and (and (and (and (and (and (and (and (and (and (and (and (and ?v_238 (= x_79 4)) ?v_239) (= x_56 ?v_100)) ?v_198) ?v_155) ?v_199) ?v_157) ?v_158) ?v_240) ?v_160) ?v_161) ?v_241) ?v_163) ?v_171)) (and (and (and (and (and (and (and ?v_242 x_16) ?v_149) ?v_142) ?v_232) ?v_171) ?v_172) ?v_173)) ?v_136) ?v_127) ?v_137) ?v_165) ?v_166) ?v_167) ?v_168) ?v_169) ?v_170) ?v_174) ?v_175) ?v_176) ?v_177) ?v_178) ?v_179)) (and (and (and (and (and (and (and (and (and (and (and (and (and (and (and (or (or (or (or (or (or (or (or (or (and (and (and (and (and ?v_243 ?v_246) ?v_244) (= x_50 (+ 0 48))) ?v_126) ?v_175) (and (and (and (and (and (and ?v_243 x_17) ?v_142) ?v_252) ?v_174) ?v_175) ?v_176)) (and (and (and (and (and ?v_250 ?v_246) ?v_247) ?v_254) ?v_255) ?v_175)) (and (and (and (and (and (and (and ?v_250 x_17) ?v_145) ?v_142) ?v_247) (= x_50 (- ?v_251 x_30))) ?v_252) ?v_175)) (and (and (and (and (and (and (and ?v_253 x_17) ?v_145) ?v_142) ?v_28) ?v_256) ?v_257) ?v_252)) (and (and (and (and (and ?v_253 ?v_246) ?v_254) ?v_255) ?v_174) ?v_175)) (and (and (and (and (and (and (and (or ?v_250 ?v_253) x_17) ?v_149) ?v_142) ?v_28) ?v_256) ?v_257) ?v_252)) (and (and (and (and (and ?v_258 (not (= ?v_101 5))) ?v_259) (= x_57 x_80)) ?v_126) ?v_174)) (and (and (and (and (and (and (and (and (and (and (and (and (and (and ?v_258 (= x_80 5)) ?v_259) (= x_57 ?v_101)) ?v_198) ?v_155) ?v_199) ?v_157) ?v_158) ?v_159) ?v_260) ?v_161) ?v_261) ?v_163) ?v_174)) (and (and (and (and (and (and (and ?v_262 x_17) ?v_149) ?v_142) ?v_252) ?v_174) ?v_175) ?v_176)) ?v_136) ?v_127) ?v_137) ?v_165) ?v_166) ?v_167) ?v_168) ?v_169) ?v_170) ?v_171) ?v_172) ?v_173) ?v_177) ?v_178) ?v_179)) (and (and (and (and (and (and (and (and (and (and (and (and (and (and (and (or (or (or (or (or (or (or (or (or (and (and (and (and (and ?v_263 ?v_266) ?v_264) (= x_51 (+ 0 51))) ?v_126) ?v_178) (and (and (and (and (and (and ?v_263 x_18) ?v_142) ?v_272) ?v_177) ?v_178) ?v_179)) (and (and (and (and (and ?v_270 ?v_266) ?v_267) ?v_274) ?v_275) ?v_178)) (and (and (and (and (and (and (and ?v_270 x_18) ?v_145) ?v_142) ?v_267) (= x_51 (- ?v_271 x_30))) ?v_272) ?v_178)) (and (and (and (and (and (and (and ?v_273 x_18) ?v_145) ?v_142) ?v_29) ?v_276) ?v_277) ?v_272)) (and (and (and (and (and ?v_273 ?v_266) ?v_274) ?v_275) ?v_177) ?v_178)) (and (and (and (and (and (and (and (or ?v_270 ?v_273) x_18) ?v_149) ?v_142) ?v_29) ?v_276) ?v_277) ?v_272)) (and (and (and (and (and ?v_278 (not (= ?v_102 6))) ?v_279) (= x_58 x_81)) ?v_126) ?v_177)) (and (and (and (and (and (and (and (and (and (and (and (and (and (and ?v_278 (= x_81 6)) ?v_279) (= x_58 ?v_102)) ?v_198) ?v_155) ?v_199) ?v_157) ?v_158) ?v_159) ?v_160) ?v_280) ?v_281) ?v_163) ?v_177)) (and (and (and (and (and (and (and ?v_282 x_18) ?v_149) ?v_142) ?v_272) ?v_177) ?v_178) ?v_179)) ?v_136) ?v_127) ?v_137) ?v_165) ?v_166) ?v_167) ?v_168) ?v_169) ?v_170) ?v_171) ?v_172) ?v_173) ?v_174) ?v_175) ?v_176)) ?v_283))) (or (or (or (or (or (or (and ?v_284 (= x_82 (ite (and (and (and (and (and (and ?v_285 ?v_286) ?v_287) ?v_288) ?v_289) ?v_290) ?v_291) 0 (ite ?v_306 1 6)))) (and (and ?v_385 ?v_305) (= x_82 (ite ?v_306 1 (ite ?v_335 2 6))))) (and (and (and ?v_334 x_21) ?v_305) (= x_82 (ite ?v_335 2 (ite ?v_356 3 6))))) (and (and (and x_20 x_21) ?v_305) (= x_82 (ite ?v_356 3 (ite ?v_335 2 x_75))))) (and (and ?v_357 x_22) (= x_82 (ite ?v_358 4 (ite ?v_386 5 6))))) (and (and ?v_385 x_22) (= x_82 (ite ?v_386 5 x_75)))) (and ?v_389 (= x_82 6)))) (or (and (and (and (and (and (not (= x_82 0)) (not (= x_82 1))) (not (= x_82 2))) (not (= x_82 3))) (not (= x_82 4))) (not (= x_82 5))) ?v_389)) (or (or ?v_305 ?v_304) ?v_334)))))))))))))))))))))))))))))))))))))))))))))))))))))))))))))))
(check-sat)
(exit)
